data;

set A := 478381656 575973361 638926078 642908289 693952666 641369528 758845058 492591121 539736112 546307187 603976477 418050532 391058121 619672668 380978904 339307188 818562902 488000445 501974811 458661485 363699274 682071861 743000819 579117678 926222808 785594865 607986509 845990341 566798904 221270003 219317560 763395958 72700899 239019087 856163879 897183924 2086353 401561960 642413100 379628326 242915778 516915511 637413950 383741731 205837937 978097540 212881011 582333430 717629410 822603306 629939270 999138842 858135957 863461207 497433298 935278462 943171279 492419529 285882132 11774401 979445464 939302161 365873708 73186422 313991479 627215827 103629724 142659937 587837944 616631812 535969671 312378552 972492774 743652138 568646899 378260835 555854032 982611615 964614663 297595196 816659911 53353934 270760013 82312527;
param T := 21000000000;

end;
